
Gurobi 9.5.1 (linux64, gurobi_cl) logging started Tue Jan 31 12:47:36 2023

Set parameter Username
Set parameter TimeLimit to value 7200
Set parameter LogFile to value "./log/reopt_p2/problem2_27.log"
Set parameter Threads to value 1
Academic license - for non-commercial use only - expires 2023-07-13
Using license file /opt/gurobi951/linux64/gurobi.lic

Gurobi Optimizer version 9.5.1 build v9.5.1rc2 (linux64)
Copyright (c) 2022, Gurobi Optimization, LLC

Read MPS format model from file ./ins/reopt_p2/problem2_27.mps.mps.gz
Reading time = 2.82 seconds
problem_: 481503 rows, 1374788 columns, 3056482 nonzeros
Thread count: 112 physical cores, 224 logical processors, using up to 1 threads
Optimize a model with 481503 rows, 1374788 columns and 3056482 nonzeros
Model fingerprint: 0xe5da8521
Variable types: 0 continuous, 1374788 integer (1374788 binary)
Coefficient statistics:
  Matrix range     [6e-02, 2e+02]
  Objective range  [2e-01, 8e+01]
  Bounds range     [1e+00, 1e+00]
  RHS range        [1e+00, 1e+00]
Presolve removed 81 rows and 81 columns (presolve time = 5s) ...
Presolve removed 105 rows and 162 columns (presolve time = 10s) ...
Presolve removed 105 rows and 162 columns (presolve time = 326s) ...
Presolve removed 105 rows and 162 columns
Presolve time: 326.82s
Presolved: 481398 rows, 1374626 columns, 3056215 nonzeros
Variable types: 0 continuous, 1374626 integer (1374626 binary)
Found heuristic solution: objective 529299.21800

Root simplex log...

Iteration    Objective       Primal Inf.    Dual Inf.      Time
       0   -0.0000000e+00   0.000000e+00   9.100000e+01    368s
   33923    3.4170490e+04   0.000000e+00   0.000000e+00    369s
   33923    3.4170490e+04   0.000000e+00   0.000000e+00    369s

Use crossover to convert LP symmetric solution to basic solution...

Root crossover log...

       0 DPushes remaining with DInf 0.0000000e+00               369s

       0 PPushes remaining with PInf 0.0000000e+00               369s

  Push phase complete: Pinf 0.0000000e+00, Dinf 3.3026845e-10    369s


Root simplex log...

Iteration    Objective       Primal Inf.    Dual Inf.      Time
   35289    3.4170490e+04   0.000000e+00   0.000000e+00    369s
   35289    3.4170490e+04   0.000000e+00   0.000000e+00    370s

Root relaxation: objective 3.417049e+04, 35289 iterations, 5.86 seconds (3.16 work units)

    Nodes    |    Current Node    |     Objective Bounds      |     Work
 Expl Unexpl |  Obj  Depth IntInf | Incumbent    BestBd   Gap | It/Node Time

     0     0 34170.4896    0 14121 529299.218 34170.4896  93.5%     -  399s
H    0     0                    233806.71600 34170.4896  85.4%     -  400s
     0     0 37484.9406    0 19574 233806.716 37484.9406  84.0%     -  432s
H    0     0                    227963.87000 37484.9406  83.6%     -  454s
     0     0 37530.2495    0 19614 227963.870 37530.2495  83.5%     -  465s
     0     0 37537.5211    0 20239 227963.870 37537.5211  83.5%     -  482s
     0     0 37546.2108    0 22064 227963.870 37546.2108  83.5%     -  492s
     0     0 37549.0083    0 22702 227963.870 37549.0083  83.5%     -  496s
     0     0 37549.4973    0 22704 227963.870 37549.4973  83.5%     -  498s
     0     0 37549.5832    0 22707 227963.870 37549.5832  83.5%     -  500s
     0     0 40421.0459    0 34563 227963.870 40421.0459  82.3%     -  547s
     0     0 40742.1229    0 28347 227963.870 40742.1229  82.1%     -  578s
     0     0 40771.0090    0 28169 227963.870 40771.0090  82.1%     -  592s
     0     0 40774.9410    0 28874 227963.870 40774.9410  82.1%     -  604s
     0     0 40779.2719    0 29250 227963.870 40779.2719  82.1%     -  617s
     0     0 40779.5977    0 29261 227963.870 40779.5977  82.1%     -  629s
     0     0 42847.3327    0 97667 227963.870 42847.3327  81.2%     - 1028s
H    0     0                    227390.64400 42847.3327  81.2%     - 1067s
     0     0 44038.3537    0 150348 227390.644 44038.3537  80.6%     - 2744s
     0     0 44137.9912    0 88048 227390.644 44137.9912  80.6%     - 3113s
     0     0 44249.1509    0 123847 227390.644 44249.1509  80.5%     - 3799s
     0     0 44288.7120    0 123033 227390.644 44288.7120  80.5%     - 4164s
     0     0 44334.5432    0 132887 227390.644 44334.5432  80.5%     - 4431s
     0     0 44357.7929    0 73482 227390.644 44357.7929  80.5%     - 4764s
     0     0 44372.0209    0 115823 227390.644 44372.0209  80.5%     - 5031s
     0     0 44375.4829    0 89956 227390.644 44375.4829  80.5%     - 5158s
     0     0 44379.1687    0 121091 227390.644 44379.1687  80.5%     - 5285s
     0     0 44381.1397    0 116263 227390.644 44381.1397  80.5%     - 5364s
     0     0 44381.3034    0 120607 227390.644 44381.3034  80.5%     - 5404s
     0     0          -    0      227390.644 44381.3034  80.5%     - 7200s

Cutting planes:
  Gomory: 8
  Lift-and-project: 4
  Cover: 22929
  Clique: 8648
  MIR: 7720
  StrongCG: 2710

Explored 1 nodes (510120 simplex iterations) in 7200.12 seconds (5593.57 work units)
Thread count was 1 (of 224 available processors)

Solution count 4: 227391 227964 233807 529299 

Time limit reached
Best objective 2.273906440000e+05, best bound 4.438130342088e+04, gap 80.4824%

Gurobi 10.0.2 (linux64) logging started Tue Sep  5 17:38:01 2023

Set parameter LogFile to value "../reopt_p2/problem2_27.log"
Set parameter TimeLimit to value 600
Gurobi Optimizer version 10.0.2 build v10.0.2rc0 (linux64)

CPU model: Intel(R) Xeon(R) Platinum 8280 CPU @ 2.70GHz, instruction set [SSE2|AVX|AVX2|AVX512]
Thread count: 112 physical cores, 112 logical processors, using up to 32 threads

Optimize a model with 481503 rows, 1374788 columns and 3056482 nonzeros
Model fingerprint: 0xe5da8521
Variable types: 0 continuous, 1374788 integer (1374788 binary)
Coefficient statistics:
  Matrix range     [6e-02, 2e+02]
  Objective range  [2e-01, 8e+01]
  Bounds range     [1e+00, 1e+00]
  RHS range        [1e+00, 1e+00]
Presolve removed 81 rows and 81 columns (presolve time = 5s) ...
Presolve removed 105 rows and 162 columns (presolve time = 10s) ...
Presolve removed 105 rows and 162 columns (presolve time = 15s) ...
Presolve removed 105 rows and 162 columns (presolve time = 20s) ...
Presolve removed 105 rows and 162 columns (presolve time = 405s) ...
Presolve removed 105 rows and 162 columns (presolve time = 405s) ...
Presolve removed 105 rows and 162 columns
Presolve time: 405.73s
Presolved: 481398 rows, 1374626 columns, 3056215 nonzeros
Variable types: 0 continuous, 1374626 integer (1374626 binary)
Found heuristic solution: objective 529299.21800
Deterministic concurrent LP optimizer: primal simplex, dual simplex, and barrier
Showing barrier log only...

Root barrier log...

Ordering time: 0.16s

Barrier statistics:
 AA' NZ     : 1.863e+06
 Factor NZ  : 5.060e+06 (roughly 80 MB of memory)
 Factor Ops : 1.049e+09 (less than 1 second per iteration)
 Threads    : 30

                  Objective                Residual
Iter       Primal          Dual         Primal    Dual     Compl     Time
   0   1.90639016e+06 -1.55109623e+07  4.29e+01 1.73e+01  5.96e+02   461s
   1   6.30204302e+05 -8.35143567e+06  1.29e+01 2.06e-13  1.66e+02   461s
   2   1.78219974e+05 -2.15715367e+06  2.55e+00 2.06e-13  2.90e+01   461s
   3   6.13084445e+04 -2.93502905e+05  3.64e-14 8.41e-12  2.54e+00   461s

Barrier performed 3 iterations in 461.09 seconds (194.88 work units)
Barrier solve interrupted - model solved by another algorithm

Concurrent spin time: 0.03s

Solved with dual simplex

Root simplex log...

Iteration    Objective       Primal Inf.    Dual Inf.      Time
   50586    3.4170490e+04   0.000000e+00   0.000000e+00    461s

Use crossover to convert LP symmetric solution to basic solution...

Root crossover log...

       0 DPushes remaining with DInf 0.0000000e+00               461s

       0 PPushes remaining with PInf 0.0000000e+00               461s

  Push phase complete: Pinf 0.0000000e+00, Dinf 1.5550433e-11    461s


Root simplex log...

Iteration    Objective       Primal Inf.    Dual Inf.      Time
   50607    3.4170490e+04   0.000000e+00   0.000000e+00    461s
   50607    3.4170490e+04   0.000000e+00   0.000000e+00    462s

Root relaxation: objective 3.417049e+04, 50607 iterations, 6.74 seconds (2.71 work units)
Total elapsed time = 466.65s

    Nodes    |    Current Node    |     Objective Bounds      |     Work
 Expl Unexpl |  Obj  Depth IntInf | Incumbent    BestBd   Gap | It/Node Time

     0     0 34170.4896    0 14121 529299.218 34170.4896  93.5%     -  509s
H    0     0                    233806.71600 34170.4896  85.4%     -  509s
     0     0 37484.9406    0 19574 233806.716 37484.9406  84.0%     -  584s
     0     0 37484.9406    0 19574 233806.716 37484.9406  84.0%     -  600s

Cutting planes:
  Gomory: 115
  Cover: 5900
  Clique: 2411
  MIR: 1366
  StrongCG: 1659

Explored 1 nodes (55358 simplex iterations) in 600.35 seconds (228.92 work units)
Thread count was 32 (of 112 available processors)

Solution count 2: 233807 529299 

Time limit reached
Best objective 2.338067160000e+05, best bound 3.748494060041e+04, gap 83.9676%

Gurobi 10.0.2 (linux64) logging started Wed Sep  6 13:19:24 2023

Set parameter LogFile to value "../reopt_p2/problem2_27.log"
Set parameter TimeLimit to value 600
Set parameter Threads to value 30
Gurobi Optimizer version 10.0.2 build v10.0.2rc0 (linux64)

CPU model: Intel(R) Xeon(R) Platinum 8280 CPU @ 2.70GHz, instruction set [SSE2|AVX|AVX2|AVX512]
Thread count: 112 physical cores, 112 logical processors, using up to 30 threads

Optimize a model with 481503 rows, 1374788 columns and 3056482 nonzeros
Model fingerprint: 0xe5da8521
Variable types: 0 continuous, 1374788 integer (1374788 binary)
Coefficient statistics:
  Matrix range     [6e-02, 2e+02]
  Objective range  [2e-01, 8e+01]
  Bounds range     [1e+00, 1e+00]
  RHS range        [1e+00, 1e+00]
Presolve removed 81 rows and 81 columns (presolve time = 5s) ...
Presolve removed 105 rows and 162 columns (presolve time = 10s) ...
Presolve removed 105 rows and 162 columns (presolve time = 152s) ...
Presolve removed 105 rows and 162 columns
Presolve time: 153.02s
Presolved: 481398 rows, 1374626 columns, 3056215 nonzeros
Variable types: 0 continuous, 1374626 integer (1374626 binary)
Found heuristic solution: objective 529299.21800
Deterministic concurrent LP optimizer: primal simplex, dual simplex, and barrier
Showing barrier log only...

Root barrier log...

Ordering time: 0.15s

Barrier statistics:
 AA' NZ     : 1.863e+06
 Factor NZ  : 5.060e+06 (roughly 80 MB of memory)
 Factor Ops : 1.049e+09 (less than 1 second per iteration)
 Threads    : 28

                  Objective                Residual
Iter       Primal          Dual         Primal    Dual     Compl     Time
   0   1.90639016e+06 -1.55109623e+07  4.29e+01 1.73e+01  5.96e+02   185s
   1   6.30204302e+05 -8.35143567e+06  1.29e+01 2.06e-13  1.66e+02   185s
   2   1.78219974e+05 -2.15715367e+06  2.55e+00 1.87e-13  2.90e+01   186s

Barrier performed 2 iterations in 185.50 seconds (194.82 work units)
Barrier solve interrupted - model solved by another algorithm

Concurrent spin time: 0.11s (can be avoided by choosing Method=3)

Solved with dual simplex

Root simplex log...

Iteration    Objective       Primal Inf.    Dual Inf.      Time
   50586    3.4170490e+04   0.000000e+00   0.000000e+00    186s

Use crossover to convert LP symmetric solution to basic solution...

Root crossover log...

      18 DPushes remaining with DInf 0.0000000e+00               186s
       0 DPushes remaining with DInf 0.0000000e+00               186s

       0 PPushes remaining with PInf 0.0000000e+00               186s

  Push phase complete: Pinf 0.0000000e+00, Dinf 1.5550433e-11    186s


Root simplex log...

Iteration    Objective       Primal Inf.    Dual Inf.      Time
   50607    3.4170490e+04   0.000000e+00   0.000000e+00    186s
   50607    3.4170490e+04   0.000000e+00   0.000000e+00    186s

Root relaxation: objective 3.417049e+04, 50607 iterations, 4.60 seconds (2.71 work units)

    Nodes    |    Current Node    |     Objective Bounds      |     Work
 Expl Unexpl |  Obj  Depth IntInf | Incumbent    BestBd   Gap | It/Node Time

     0     0 34170.4896    0 14121 529299.218 34170.4896  93.5%     -  354s
H    0     0                    233806.71600 34170.4896  85.4%     -  354s
     0     0 37484.9406    0 19574 233806.716 37484.9406  84.0%     -  391s
H    0     0                    228121.23200 37484.9406  83.6%     -  408s
     0     0 37530.2495    0 19614 228121.232 37530.2495  83.5%     -  428s
     0     0 37537.5211    0 20239 228121.232 37537.5211  83.5%     -  484s
     0     0 37546.2108    0 22064 228121.232 37546.2108  83.5%     -  526s
     0     0 37549.0083    0 22702 228121.232 37549.0083  83.5%     -  553s
     0     0 37549.4973    0 22704 228121.232 37549.4973  83.5%     -  555s
     0     0 37549.5832    0 22707 228121.232 37549.5832  83.5%     -  557s
     0     0 40419.4717    0 34582 228121.232 40419.4717  82.3%     -  595s

Cutting planes:
  Gomory: 151
  Cover: 9213
  Clique: 4217
  MIR: 2245
  StrongCG: 1696

Explored 1 nodes (66388 simplex iterations) in 600.13 seconds (276.26 work units)
Thread count was 30 (of 112 available processors)

Solution count 3: 228121 233807 529299 

Time limit reached
Best objective 2.281212320000e+05, best bound 4.041947171151e+04, gap 82.2816%
